GLPSOL--GLPK LP/MIP Solver 5.0
Parameter(s) specified in the command line:
 -m uel-lp.txt -o uel-lp.sol
Reading model section from uel-lp.txt...
259 lines were read
Generating Eq1_2_3_down...
Generating Eq1_2_3_up...
Generating Eq4_down...
Generating Eq4_up...
Generating Eq7_down...
Generating Eq7_up...
Generating Eq8_down...
Generating Eq8_up...
Generating Eq9_down...
Generating Eq9_up...
Generating Eq10_down...
Generating Eq10_up...
Generating Eq12_down...
Generating Eq12_up...
Generating Eq13_down...
Generating Eq13_up...
Generating Eq14_down...
Generating Eq14_up...
Generating Eq15_down...
Generating Eq15_up...
Generating Eq16_17b_down...
Generating Eq16_17a_up...
Generating Eq18_down...
Generating Eq18_up...
Generating Eq19_down...
Generating Eq19_up...
Generating Eq20_21b_down...
Generating Eq20_21a_up...
Generating Eq22_down...
Generating Eq22_up...
Generating Eq23_down...
Generating Eq23_up...
Generating Eq24_down...
Generating Eq24_up...
Generating Eq25_down...
Generating Eq25_up...
Generating Eq26_down...
Generating Eq26_up...
Generating Eq27_down...
Generating Eq27_up...
Generating Eq28_down...
Generating Eq28_up...
Generating Eq29_down...
Generating Eq29_up...
Generating Eq31_down...
Generating Eq31_up...
Generating Eq33_down...
Generating Eq33_up...
Generating Eq34_down...
Generating Eq34_up...
Generating Eq35_down...
Generating Eq35_up...
Generating Eq37_down...
Generating Eq37_up...
Generating Eq38_down...
Generating Eq38_up...
Generating Eq39_down...
Generating Eq39_up...
Generating Eq40_down...
Generating Eq40_up...
Generating Eq41_down...
Generating Eq41_up...
Generating Eq42_down...
Generating Eq42_up...
Generating Eq43_down...
Generating Eq43_up...
Generating Eq44_down...
Generating Eq44_up...
Generating Eq46_down...
Generating Eq46_up...
Generating Eq47_down...
Generating Eq47_up...
Generating Eq49_down...
Generating Eq49_up...
Generating Eq50_down...
Generating Eq50_up...
Generating Eq51_down...
Generating Eq51_up...
Generating Eq52_down...
Generating Eq52_up...
Generating Eq54_down...
Generating Eq54_up...
Generating Eq55_down...
Generating Eq55_up...
Generating Eq56_down...
Generating Eq56_up...
Generating Eq57_down...
Generating Eq57_up...
Generating Eq58_down...
Generating Eq58_up...
Generating Eq59_down...
Generating Eq59_up...
Generating Eq60_down...
Generating Eq60_up...
Generating Eq61_down...
Generating Eq61_up...
Generating Eq62_down...
Generating Eq62_up...
Generating Eq63_down...
Generating Eq63_up...
Generating Eq64_down...
Generating Eq64_up...
Generating Eq65_down...
Generating Eq65_up...
Generating maxOfAllErrors...
Model has been successfully generated
GLPK Simplex Optimizer 5.0
105 rows, 43 columns, 325 non-zeros
Preprocessing...
104 rows, 43 columns, 324 non-zeros
Scaling...
 A: min|aij| =  1.000e+00  max|aij| =  4.000e+00  ratio =  4.000e+00
Problem data seem to be well scaled
Constructing initial basis...
Size of triangular part is 104
      0: obj =   0.000000000e+00 inf =   1.128e+02 (52)
     50: obj =   2.230000000e+00 inf =   0.000e+00 (0)
*    95: obj =   2.500000000e-02 inf =   0.000e+00 (0)
OPTIMAL LP SOLUTION FOUND
Time used:   0.0 secs
Memory used: 0.4 Mb (413188 bytes)
Cp	-0.49125
Cl	-0.34125
SPh	-0.40125
BH4	-0.30625
SiPr	-0.53125
OiPr	-0.89125
tmp	-0.43125
tBuCp	-0.52125
Cp*	-0.59625
NEt2	-0.82125
Me	-0.59625
Oet	-0.80625
TMSCp	-0.487917
MeCp	-0.527917
n2NN'tetrazolate	-0.27125
SO3CF3	-0.01625
CH2Ph	-0.36625
CPiPr4	-0.51625
I	-0.20125
Br	-0.27125
N3	-0.40125
NCO	0
F	-0.60125
PN	-0.69125
PNP	-0.74125
bipy-	-0.54375
fc(NSi(tBu)Me2)2	-1.2575
COT	-1.2425
N(SiMe)2	-0.53125
n2(N,N')-CH3NN=CPh2	-0.78125
n2(N,N')-CH2PhNN=CPh2	-0.67125
-N=C(CH2C6J5)(tpy)	-0.60125
-N=C(Ph)(Ph)	-0.64625
-N=C(Ph)(CH2Ph)	-0.67625
-N=C(Ph)(CH3)	-0.73125
-N=C(CH3)(C6F5)	-0.56125
-N=C(CH3)(3,5-F2-C6H3)	-0.62125
–N=C(CH3)(3,4,5-F3-C6H2)	-0.63125
–N=C(CH3)(3-F-C6H4)	-0.66125
–N=C(CH3)(2-F-C6H4)	-0.70125
–N=C(CH3)(4-F-C6H4)	-0.71125
–N=C(CH3)(2,4,6-F3-C6H2)	-0.79125
–N=C(CH3)(2,6-F2-C6H3)	-0.80125
maxError	0.025
Model has been successfully processed
Writing basic solution to 'uel-lp.sol'...
